300302
300302
299280
299280
299280
297194
297194
297194
290565
290565
290565
283802
283802
283802
283279
283279
283178
282451
280292
278052
278052
278052
277839
276931
276931
276410
276410
274129
274129
274129
274129
274129
273272
273272
272241
272241
272241
270246
270246
270246
268607
268607
268607
268607
268607
268607
268607
267374
267374
267374
267374
267374
266379
266174
263200
263200
263200
263200
263200
263200
262648
261512
261512
261512
261131
259667
259667
259667
259667
259667
259667
256199
256199
256199
256199
255834
255834
255834
255834
255350
255350
249889
249889
249889
249889
249889
249811
249811
249810
249810
249810
247553
247553
247553
246791
246791
246791
245295
245295
244713
